
Gurobi 10.0.0 (win64) logging started Tue Jun  4 16:12:19 2024

Set parameter LogFile to value "C:\Users\ealvarezq\Documents\GitHub\Comillas\Models\JointResearch\05. Models\06.Benchmarking\E.Representative_days_based_on_Line_Benefits_OptModel\9n_mod1_ByStages_nc80/openStarNet_9n_mod1_ByStages_nc80.log"
Set parameter Method to value 2
Set parameter MIPFocus to value 1
Set parameter Presolve to value 2
Set parameter RINS to value 100
Set parameter MIPGap to value 0.01
Set parameter Threads to value 9
Set parameter TimeLimit to value 259200
Set parameter IterationLimit to value 760000000
Gurobi Optimizer version 10.0.0 build v10.0.0rc2 (win64)

CPU model: Intel(R) Core(TM) i7-8700 CPU @ 3.20GHz, instruction set [SSE2|AVX|AVX2]
Thread count: 6 physical cores, 12 logical processors, using up to 9 threads

Optimize a model with 20963 rows, 11154 columns and 63451 nonzeros
Model fingerprint: 0x03d9d818
Variable types: 11118 continuous, 36 integer (36 binary)
Coefficient statistics:
  Matrix range     [3e-04, 2e+03]
  Objective range  [1e+00, 1e+00]
  Bounds range     [4e-04, 2e+00]
  RHS range        [3e-04, 1e+00]
Presolve removed 7123 rows and 3764 columns
Presolve time: 0.07s
Presolved: 13840 rows, 7390 columns, 47354 nonzeros
Variable types: 7354 continuous, 36 integer (36 binary)
Found heuristic solution: objective 4472.7625802
Root relaxation presolved: 13840 rows, 7390 columns, 47354 nonzeros

Root barrier log...

Ordering time: 0.01s

Barrier statistics:
 Dense cols : 36
 AA' NZ     : 1.639e+05
 Factor NZ  : 3.242e+05 (roughly 11 MB of memory)
 Factor Ops : 1.080e+07 (less than 1 second per iteration)
 Threads    : 9

                  Objective                Residual
Iter       Primal          Dual         Primal    Dual     Compl     Time
   0   4.82604309e+05 -6.74475705e+07  7.18e+00 4.09e+02  9.63e+03     0s
   1   8.02793248e+04 -2.73389021e+07  1.01e+00 1.33e-08  1.49e+03     0s
   2   1.84206812e+04 -5.00680738e+06  1.53e-02 1.27e-08  1.87e+02     0s
   3   1.07625807e+04 -9.43333679e+04  7.37e-14 2.20e-10  3.86e+00     0s
   4   1.62595406e+03 -1.52216281e+04  3.64e-14 2.71e-11  6.18e-01     0s
   5   7.78648042e+02 -3.57231902e+03  3.20e-14 6.13e-12  1.60e-01     0s
   6   4.71017000e+02 -7.56952727e+02  4.62e-14 1.97e-12  4.50e-02     0s
   7   2.94695594e+02 -2.10354994e+02  4.53e-14 2.03e-12  1.85e-02     0s
   8   1.88230773e+02 -6.43143393e+01  3.73e-14 1.40e-12  9.26e-03     0s
   9   1.02772489e+02  2.23727470e+00  4.06e-13 1.81e-12  3.69e-03     0s
  10   8.17297141e+01  5.57405053e+01  7.32e-13 2.51e-12  9.53e-04     0s
  11   7.91382867e+01  6.26855432e+01  1.49e-12 1.71e-12  6.04e-04     0s
  12   7.75435121e+01  6.56576403e+01  4.00e-12 1.49e-12  4.36e-04     0s
  13   7.62492774e+01  6.61035414e+01  4.09e-12 1.92e-12  3.72e-04     0s
  14   7.55786047e+01  6.70727919e+01  6.99e-12 9.84e-13  3.12e-04     0s
  15   7.51270072e+01  6.75927371e+01  7.06e-12 1.39e-12  2.76e-04     0s
  16   7.44782521e+01  6.85932355e+01  9.33e-12 1.64e-12  2.16e-04     0s
  17   7.40984535e+01  6.90996744e+01  5.43e-12 1.18e-12  1.83e-04     0s
  18   7.35499208e+01  7.07733509e+01  4.52e-12 1.32e-12  1.02e-04     0s
  19   7.33201480e+01  7.19574412e+01  4.22e-12 1.12e-12  5.00e-05     0s
  20   7.32456651e+01  7.20593114e+01  1.94e-11 1.58e-12  4.35e-05     0s
  21   7.30080676e+01  7.25464864e+01  1.53e-11 2.42e-12  1.69e-05     0s
  22   7.29579151e+01  7.26665122e+01  6.66e-11 1.59e-12  1.07e-05     0s
  23   7.28988712e+01  7.27148970e+01  1.16e-10 1.21e-12  6.75e-06     0s
  24   7.28955535e+01  7.27287807e+01  1.09e-10 1.33e-12  6.12e-06     0s
  25   7.28911306e+01  7.28031596e+01  9.95e-11 1.22e-12  3.23e-06     0s
  26   7.28486899e+01  7.28427567e+01  5.14e-10 2.34e-12  2.18e-07     0s
  27   7.28444306e+01  7.28444247e+01  1.34e-09 1.80e-12  2.20e-10     0s
  28   7.28444264e+01  7.28444264e+01  1.18e-10 2.43e-12  2.20e-13     0s

Barrier solved model in 28 iterations and 0.35 seconds (0.34 work units)
Optimal objective 7.28444264e+01


Root relaxation: objective 7.284443e+01, 1155 iterations, 0.25 seconds (0.26 work units)

    Nodes    |    Current Node    |     Objective Bounds      |     Work
 Expl Unexpl |  Obj  Depth IntInf | Incumbent    BestBd   Gap | It/Node Time

     0     0   72.84443    0    4 4472.76258   72.84443  98.4%     -    0s
H    0     0                      76.5982600   72.84443  4.90%     -    0s
     0     0   75.70190    0    1   76.59826   75.70190  1.17%     -    0s
     0     0   75.70190    0    3   76.59826   75.70190  1.17%     -    0s

Cutting planes:
  Gomory: 2
  MIR: 69

Explored 1 nodes (1705 simplex iterations) in 0.81 seconds (0.62 work units)
Thread count was 9 (of 12 available processors)

Solution count 2: 76.5983 4472.76 

Optimal solution found (tolerance 1.00e-02)
Best objective 7.659825999721e+01, best bound 7.659825999721e+01, gap 0.0000%

Gurobi 10.0.0 (win64) logging started Tue Jun  4 16:12:25 2024

Set parameter LogFile to value "C:\Users\ealvarezq\Documents\GitHub\Comillas\Models\JointResearch\05. Models\06.Benchmarking\E.Representative_days_based_on_Line_Benefits_OptModel\9n_mod1_ByStages_nc80/openStarNet_9n_mod1_ByStages_nc80.log"
Set parameter Method to value 2
Set parameter MIPFocus to value 1
Set parameter Presolve to value 2
Set parameter RINS to value 100
Set parameter MIPGap to value 0.01
Set parameter Threads to value 9
Set parameter TimeLimit to value 259200
Set parameter IterationLimit to value 760000000
Gurobi Optimizer version 10.0.0 build v10.0.0rc2 (win64)

CPU model: Intel(R) Core(TM) i7-8700 CPU @ 3.20GHz, instruction set [SSE2|AVX|AVX2]
Thread count: 6 physical cores, 12 logical processors, using up to 9 threads

Optimize a model with 20963 rows, 11118 columns and 51895 nonzeros
Model fingerprint: 0x9751f878
Coefficient statistics:
  Matrix range     [3e-04, 2e+03]
  Objective range  [1e+00, 1e+00]
  Bounds range     [4e-04, 2e+00]
  RHS range        [3e-04, 2e+01]
Presolve removed 19111 rows and 7365 columns
Presolve time: 0.02s
Presolved: 1852 rows, 3833 columns, 8258 nonzeros

Ordering time: 0.00s

Barrier statistics:
 AA' NZ     : 4.061e+03
 Factor NZ  : 1.837e+04 (roughly 2 MB of memory)
 Factor Ops : 2.400e+05 (less than 1 second per iteration)
 Threads    : 1

                  Objective                Residual
Iter       Primal          Dual         Primal    Dual     Compl     Time
   0   7.83748452e+05 -4.37467445e+07  9.51e+00 2.89e+02  3.55e+04     0s
   1   8.09122673e+04 -2.63693246e+07  7.76e-01 2.91e-11  4.90e+03     0s
   2   2.99946515e+04 -7.42400774e+06  1.33e-01 6.55e-11  1.02e+03     0s
   3   1.60421429e+04 -6.05783214e+05  7.49e-03 1.73e-11  7.30e+01     0s
   4   7.45278998e+03 -4.21905229e+04  6.97e-05 8.37e-11  5.70e+00     0s
   5   2.51593807e+03 -1.20379199e+04  1.19e-05 2.82e-11  1.67e+00     0s
   6   8.88814755e+02 -3.79632151e+03  7.54e-07 8.87e-12  5.37e-01     0s
   7   3.79378299e+02 -8.54217408e+02  5.44e-10 3.85e-12  1.41e-01     0s
   8   2.69642153e+02 -2.29808522e+02  2.28e-10 3.41e-12  5.73e-02     0s
   9   1.63520733e+02 -5.01416839e+01  8.38e-11 2.15e-12  2.45e-02     0s
  10   1.02822816e+02  3.87732545e+01  1.86e-11 6.22e-12  7.35e-03     0s
  11   8.46595767e+01  6.39352914e+01  4.58e-12 2.91e-12  2.38e-03     0s
  12   7.95662162e+01  7.11735043e+01  1.54e-12 1.65e-12  9.63e-04     0s
  13   7.81445327e+01  7.42048559e+01  7.52e-13 4.88e-12  4.52e-04     0s
  14   7.70714521e+01  7.54460170e+01  2.18e-13 1.93e-12  1.86e-04     0s
  15   7.66915595e+01  7.62502836e+01  3.99e-14 1.77e-12  5.06e-05     0s
  16   7.66048039e+01  7.65915485e+01  1.85e-14 7.73e-12  1.52e-06     0s
  17   7.65984971e+01  7.65979483e+01  5.08e-13 4.66e-12  6.29e-08     0s
  18   7.65982603e+01  7.65982592e+01  1.36e-12 2.32e-12  1.26e-10     0s
  19   7.65982600e+01  7.65982600e+01  1.19e-13 7.29e-12  1.30e-16     0s

Barrier solved model in 19 iterations and 0.05 seconds (0.05 work units)
Optimal objective 7.65982600e+01

Crossover log...

     886 DPushes remaining with DInf 0.0000000e+00                 0s
       0 DPushes remaining with DInf 0.0000000e+00                 0s

      12 PPushes remaining with PInf 0.0000000e+00                 0s
       0 PPushes remaining with PInf 0.0000000e+00                 0s

  Push phase complete: Pinf 0.0000000e+00, Dinf 1.3822190e-13      0s

Iteration    Objective       Primal Inf.    Dual Inf.      Time
      74    7.6598260e+01   0.000000e+00   0.000000e+00      0s

Solved in 74 iterations and 0.07 seconds (0.05 work units)
Optimal objective  7.659826000e+01
